# Objective value = 110
x0,1_1 1
x0,1_3 0
x0,1_4 0
x0,1_5 0
x0,1_9 0
x0,1_14 0
x0,1_17 0
x0,1_19 0
x0,1_21 0
x0,1_27 0
x0,1_28 0
x0,1_30 0
x0,1_34 0
x0,1_35 0
x0,2_1 0
x0,2_3 0
x0,2_4 0
x0,2_5 1
x0,2_9 0
x0,2_14 0
x0,2_17 0
x0,2_19 0
x0,2_21 0
x0,2_27 0
x0,2_28 0
x0,2_30 0
x0,2_34 0
x0,2_35 0
x0,3_1 0
x0,3_3 0
x0,3_4 0
x0,3_5 0
x0,3_9 0
x0,3_14 0
x0,3_17 0
x0,3_19 1
x0,3_21 0
x0,3_27 0
x0,3_28 0
x0,3_30 0
x0,3_34 0
x0,3_35 0
x0,4_1 0
x0,4_3 0
x0,4_4 0
x0,4_5 0
x0,4_9 0
x0,4_14 0
x0,4_17 0
x0,4_19 0
x0,4_21 0
x0,4_27 0
x0,4_28 0
x0,4_30 0
x0,4_34 0
x0,4_35 0
x0,5_1 0
x0,5_3 0
x0,5_4 0
x0,5_5 0
x0,5_9 0
x0,5_14 0
x0,5_17 0
x0,5_19 0
x0,5_21 0
x0,5_27 0
x0,5_28 1
x0,5_30 0
x0,5_34 0
x0,5_35 0
x0,6_1 0
x0,6_3 0
x0,6_4 0
x0,6_5 0
x0,6_9 0
x0,6_14 0
x0,6_17 0
x0,6_19 0
x0,6_21 0
x0,6_27 0
x0,6_28 0
x0,6_30 0
x0,6_34 0
x0,6_35 1
x1,2_1 0
x1,2_3 0
x1,2_4 1
x1,2_5 0
x1,2_9 0
x1,2_14 0
x1,2_17 0
x1,2_19 0
x1,2_21 0
x1,2_27 0
x1,2_28 0
x1,2_30 0
x1,2_34 0
x1,2_35 0
x1,3_1 0
x1,3_3 0
x1,3_4 0
x1,3_5 0
x1,3_9 0
x1,3_14 0
x1,3_17 0
x1,3_19 0
x1,3_21 0
x1,3_27 0
x1,3_28 0
x1,3_30 0
x1,3_34 0
x1,3_35 0
x1,4_1 0
x1,4_3 0
x1,4_4 0
x1,4_5 0
x1,4_9 0
x1,4_14 0
x1,4_17 0
x1,4_19 0
x1,4_21 1
x1,4_27 0
x1,4_28 0
x1,4_30 0
x1,4_34 0
x1,4_35 0
x1,5_1 0
x1,5_3 0
x1,5_4 0
x1,5_5 0
x1,5_9 0
x1,5_14 0
x1,5_17 0
x1,5_19 0
x1,5_21 0
x1,5_27 1
x1,5_28 0
x1,5_30 0
x1,5_34 0
x1,5_35 0
x1,6_1 0
x1,6_3 0
x1,6_4 0
x1,6_5 0
x1,6_9 0
x1,6_14 0
x1,6_17 0
x1,6_19 0
x1,6_21 0
x1,6_27 0
x1,6_28 0
x1,6_30 0
x1,6_34 1
x1,6_35 0
x2,3_1 0
x2,3_3 0
x2,3_4 0
x2,3_5 0
x2,3_9 0
x2,3_14 1
x2,3_17 0
x2,3_19 0
x2,3_21 0
x2,3_27 0
x2,3_28 0
x2,3_30 0
x2,3_34 0
x2,3_35 0
x2,4_1 0
x2,4_3 0
x2,4_4 0
x2,4_5 0
x2,4_9 0
x2,4_14 0
x2,4_17 1
x2,4_19 0
x2,4_21 0
x2,4_27 0
x2,4_28 0
x2,4_30 0
x2,4_34 0
x2,4_35 0
x2,5_1 0
x2,5_3 0
x2,5_4 0
x2,5_5 0
x2,5_9 0
x2,5_14 0
x2,5_17 0
x2,5_19 0
x2,5_21 0
x2,5_27 0
x2,5_28 0
x2,5_30 0
x2,5_34 0
x2,5_35 0
x2,6_1 0
x2,6_3 0
x2,6_4 0
x2,6_5 0
x2,6_9 0
x2,6_14 0
x2,6_17 0
x2,6_19 0
x2,6_21 0
x2,6_27 0
x2,6_28 0
x2,6_30 1
x2,6_34 0
x2,6_35 0
x3,4_1 0
x3,4_3 1
x3,4_4 0
x3,4_5 0
x3,4_9 0
x3,4_14 0
x3,4_17 0
x3,4_19 0
x3,4_21 0
x3,4_27 0
x3,4_28 0
x3,4_30 0
x3,4_34 0
x3,4_35 0
x3,5_1 0
x3,5_3 0
x3,5_4 0
x3,5_5 0
x3,5_9 1
x3,5_14 0
x3,5_17 0
x3,5_19 0
x3,5_21 0
x3,5_27 0
x3,5_28 0
x3,5_30 0
x3,5_34 0
x3,5_35 0
x3,6_1 0
x3,6_3 0
x3,6_4 0
x3,6_5 0
x3,6_9 0
x3,6_14 0
x3,6_17 0
x3,6_19 0
x3,6_21 0
x3,6_27 0
x3,6_28 0
x3,6_30 0
x3,6_34 0
x3,6_35 0
x4,5_1 0
x4,5_3 0
x4,5_4 0
x4,5_5 0
x4,5_9 0
x4,5_14 0
x4,5_17 0
x4,5_19 0
x4,5_21 0
x4,5_27 0
x4,5_28 0
x4,5_30 0
x4,5_34 0
x4,5_35 0
x4,6_1 0
x4,6_3 0
x4,6_4 0
x4,6_5 0
x4,6_9 0
x4,6_14 0
x4,6_17 0
x4,6_19 0
x4,6_21 0
x4,6_27 0
x4,6_28 0
x4,6_30 0
x4,6_34 0
x4,6_35 0
x5,6_1 0
x5,6_3 0
x5,6_4 0
x5,6_5 0
x5,6_9 0
x5,6_14 0
x5,6_17 0
x5,6_19 0
x5,6_21 0
x5,6_27 0
x5,6_28 0
x5,6_30 0
x5,6_34 0
x5,6_35 0
p0 0
p1 1
p2 5
p3 19
p4 22
p5 28
p6 35
